
(set-logic ALL) 

(declare-datatype MyList ((Nil) (Cons (head Real) (tail MyList)) )) 
(declare-fun l0 () MyList) 
(declare-fun l1 () MyList) 
(declare-fun l2 () MyList) 
(declare-fun l3 () MyList) 
(declare-fun i0 () Real) 
(declare-fun i1 () Real) 
(assert (is-Cons Nil) )
(assert (and (= l2 Nil) (= l2 Nil)) )
(assert (is-Nil l1) )
(assert (is-Cons Nil) )
(assert (is-Nil Nil) )
(assert (not (= l1 l3)) )
(assert (not (= l2 Nil)) )
(assert (or (is-Nil Nil) (is-Nil Nil) (= l3 l1)) )
(check-sat)
